Minimize
 obj: 0 X_0_1
Subject To
 out_0:
  + 1 X_0_1 + 1 X_0_2 + 1 X_0_3 + 1 X_0_4 + 1 X_0_5 + 1 X_0_6 + 1 X_0_7 + 1 X_0_8
  + 1 X_0_9
  = 1
 in_0:
  + 1 X_1_0 + 1 X_2_0 + 1 X_3_0 + 1 X_4_0 + 1 X_5_0 + 1 X_6_0 + 1 X_7_0 + 1 X_8_0
  + 1 X_9_0
  = 1
 out_1:
  + 1 X_1_0 + 1 X_1_2 + 1 X_1_3 + 1 X_1_4 + 1 X_1_5 + 1 X_1_6 + 1 X_1_7 + 1 X_1_8
  + 1 X_1_9
  = 1
 in_1:
  + 1 X_0_1 + 1 X_2_1 + 1 X_3_1 + 1 X_4_1 + 1 X_5_1 + 1 X_6_1 + 1 X_7_1 + 1 X_8_1
  + 1 X_9_1
  = 1
 out_2:
  + 1 X_2_0 + 1 X_2_1 + 1 X_2_3 + 1 X_2_4 + 1 X_2_5 + 1 X_2_6 + 1 X_2_7 + 1 X_2_8
  + 1 X_2_9
  = 1
 in_2:
  + 1 X_0_2 + 1 X_1_2 + 1 X_3_2 + 1 X_4_2 + 1 X_5_2 + 1 X_6_2 + 1 X_7_2 + 1 X_8_2
  + 1 X_9_2
  = 1
 out_3:
  + 1 X_3_0 + 1 X_3_1 + 1 X_3_2 + 1 X_3_4 + 1 X_3_5 + 1 X_3_6 + 1 X_3_7 + 1 X_3_8
  + 1 X_3_9
  = 1
 in_3:
  + 1 X_0_3 + 1 X_1_3 + 1 X_2_3 + 1 X_4_3 + 1 X_5_3 + 1 X_6_3 + 1 X_7_3 + 1 X_8_3
  + 1 X_9_3
  = 1
 out_4:
  + 1 X_4_0 + 1 X_4_1 + 1 X_4_2 + 1 X_4_3 + 1 X_4_5 + 1 X_4_6 + 1 X_4_7 + 1 X_4_8
  + 1 X_4_9
  = 1
 in_4:
  + 1 X_0_4 + 1 X_1_4 + 1 X_2_4 + 1 X_3_4 + 1 X_5_4 + 1 X_6_4 + 1 X_7_4 + 1 X_8_4
  + 1 X_9_4
  = 1
 out_5:
  + 1 X_5_0 + 1 X_5_1 + 1 X_5_2 + 1 X_5_3 + 1 X_5_4 + 1 X_5_6 + 1 X_5_7 + 1 X_5_8
  + 1 X_5_9
  = 1
 in_5:
  + 1 X_0_5 + 1 X_1_5 + 1 X_2_5 + 1 X_3_5 + 1 X_4_5 + 1 X_6_5 + 1 X_7_5 + 1 X_8_5
  + 1 X_9_5
  = 1
 out_6:
  + 1 X_6_0 + 1 X_6_1 + 1 X_6_2 + 1 X_6_3 + 1 X_6_4 + 1 X_6_5 + 1 X_6_7 + 1 X_6_8
  + 1 X_6_9
  = 1
 in_6:
  + 1 X_0_6 + 1 X_1_6 + 1 X_2_6 + 1 X_3_6 + 1 X_4_6 + 1 X_5_6 + 1 X_7_6 + 1 X_8_6
  + 1 X_9_6
  = 1
 out_7:
  + 1 X_7_0 + 1 X_7_1 + 1 X_7_2 + 1 X_7_3 + 1 X_7_4 + 1 X_7_5 + 1 X_7_6 + 1 X_7_8
  + 1 X_7_9
  = 1
 in_7:
  + 1 X_0_7 + 1 X_1_7 + 1 X_2_7 + 1 X_3_7 + 1 X_4_7 + 1 X_5_7 + 1 X_6_7 + 1 X_8_7
  + 1 X_9_7
  = 1
 out_8:
  + 1 X_8_0 + 1 X_8_1 + 1 X_8_2 + 1 X_8_3 + 1 X_8_4 + 1 X_8_5 + 1 X_8_6 + 1 X_8_7
  + 1 X_8_9
  = 1
 in_8:
  + 1 X_0_8 + 1 X_1_8 + 1 X_2_8 + 1 X_3_8 + 1 X_4_8 + 1 X_5_8 + 1 X_6_8 + 1 X_7_8
  + 1 X_9_8
  = 1
 out_9:
  + 1 X_9_0 + 1 X_9_1 + 1 X_9_2 + 1 X_9_3 + 1 X_9_4 + 1 X_9_5 + 1 X_9_6 + 1 X_9_7
  + 1 X_9_8
  = 1
 in_9:
  + 1 X_0_9 + 1 X_1_9 + 1 X_2_9 + 1 X_3_9 + 1 X_4_9 + 1 X_5_9 + 1 X_6_9 + 1 X_7_9
  + 1 X_8_9
  = 1
 mtz_1_2:
  + 1 U1 - 1 U2 + 9 X_1_2
  <= 8
 mtz_1_3:
  + 1 U1 - 1 U3 + 9 X_1_3
  <= 8
 mtz_1_4:
  + 1 U1 - 1 U4 + 9 X_1_4
  <= 8
 mtz_1_5:
  + 1 U1 - 1 U5 + 9 X_1_5
  <= 8
 mtz_1_6:
  + 1 U1 - 1 U6 + 9 X_1_6
  <= 8
 mtz_1_7:
  + 1 U1 - 1 U7 + 9 X_1_7
  <= 8
 mtz_1_8:
  + 1 U1 - 1 U8 + 9 X_1_8
  <= 8
 mtz_1_9:
  + 1 U1 - 1 U9 + 9 X_1_9
  <= 8
 mtz_2_1:
  + 1 U2 - 1 U1 + 9 X_2_1
  <= 8
 mtz_2_3:
  + 1 U2 - 1 U3 + 9 X_2_3
  <= 8
 mtz_2_4:
  + 1 U2 - 1 U4 + 9 X_2_4
  <= 8
 mtz_2_5:
  + 1 U2 - 1 U5 + 9 X_2_5
  <= 8
 mtz_2_6:
  + 1 U2 - 1 U6 + 9 X_2_6
  <= 8
 mtz_2_7:
  + 1 U2 - 1 U7 + 9 X_2_7
  <= 8
 mtz_2_8:
  + 1 U2 - 1 U8 + 9 X_2_8
  <= 8
 mtz_2_9:
  + 1 U2 - 1 U9 + 9 X_2_9
  <= 8
 mtz_3_1:
  + 1 U3 - 1 U1 + 9 X_3_1
  <= 8
 mtz_3_2:
  + 1 U3 - 1 U2 + 9 X_3_2
  <= 8
 mtz_3_4:
  + 1 U3 - 1 U4 + 9 X_3_4
  <= 8
 mtz_3_5:
  + 1 U3 - 1 U5 + 9 X_3_5
  <= 8
 mtz_3_6:
  + 1 U3 - 1 U6 + 9 X_3_6
  <= 8
 mtz_3_7:
  + 1 U3 - 1 U7 + 9 X_3_7
  <= 8
 mtz_3_8:
  + 1 U3 - 1 U8 + 9 X_3_8
  <= 8
 mtz_3_9:
  + 1 U3 - 1 U9 + 9 X_3_9
  <= 8
 mtz_4_1:
  + 1 U4 - 1 U1 + 9 X_4_1
  <= 8
 mtz_4_2:
  + 1 U4 - 1 U2 + 9 X_4_2
  <= 8
 mtz_4_3:
  + 1 U4 - 1 U3 + 9 X_4_3
  <= 8
 mtz_4_5:
  + 1 U4 - 1 U5 + 9 X_4_5
  <= 8
 mtz_4_6:
  + 1 U4 - 1 U6 + 9 X_4_6
  <= 8
 mtz_4_7:
  + 1 U4 - 1 U7 + 9 X_4_7
  <= 8
 mtz_4_8:
  + 1 U4 - 1 U8 + 9 X_4_8
  <= 8
 mtz_4_9:
  + 1 U4 - 1 U9 + 9 X_4_9
  <= 8
 mtz_5_1:
  + 1 U5 - 1 U1 + 9 X_5_1
  <= 8
 mtz_5_2:
  + 1 U5 - 1 U2 + 9 X_5_2
  <= 8
 mtz_5_3:
  + 1 U5 - 1 U3 + 9 X_5_3
  <= 8
 mtz_5_4:
  + 1 U5 - 1 U4 + 9 X_5_4
  <= 8
 mtz_5_6:
  + 1 U5 - 1 U6 + 9 X_5_6
  <= 8
 mtz_5_7:
  + 1 U5 - 1 U7 + 9 X_5_7
  <= 8
 mtz_5_8:
  + 1 U5 - 1 U8 + 9 X_5_8
  <= 8
 mtz_5_9:
  + 1 U5 - 1 U9 + 9 X_5_9
  <= 8
 mtz_6_1:
  + 1 U6 - 1 U1 + 9 X_6_1
  <= 8
 mtz_6_2:
  + 1 U6 - 1 U2 + 9 X_6_2
  <= 8
 mtz_6_3:
  + 1 U6 - 1 U3 + 9 X_6_3
  <= 8
 mtz_6_4:
  + 1 U6 - 1 U4 + 9 X_6_4
  <= 8
 mtz_6_5:
  + 1 U6 - 1 U5 + 9 X_6_5
  <= 8
 mtz_6_7:
  + 1 U6 - 1 U7 + 9 X_6_7
  <= 8
 mtz_6_8:
  + 1 U6 - 1 U8 + 9 X_6_8
  <= 8
 mtz_6_9:
  + 1 U6 - 1 U9 + 9 X_6_9
  <= 8
 mtz_7_1:
  + 1 U7 - 1 U1 + 9 X_7_1
  <= 8
 mtz_7_2:
  + 1 U7 - 1 U2 + 9 X_7_2
  <= 8
 mtz_7_3:
  + 1 U7 - 1 U3 + 9 X_7_3
  <= 8
 mtz_7_4:
  + 1 U7 - 1 U4 + 9 X_7_4
  <= 8
 mtz_7_5:
  + 1 U7 - 1 U5 + 9 X_7_5
  <= 8
 mtz_7_6:
  + 1 U7 - 1 U6 + 9 X_7_6
  <= 8
 mtz_7_8:
  + 1 U7 - 1 U8 + 9 X_7_8
  <= 8
 mtz_7_9:
  + 1 U7 - 1 U9 + 9 X_7_9
  <= 8
 mtz_8_1:
  + 1 U8 - 1 U1 + 9 X_8_1
  <= 8
 mtz_8_2:
  + 1 U8 - 1 U2 + 9 X_8_2
  <= 8
 mtz_8_3:
  + 1 U8 - 1 U3 + 9 X_8_3
  <= 8
 mtz_8_4:
  + 1 U8 - 1 U4 + 9 X_8_4
  <= 8
 mtz_8_5:
  + 1 U8 - 1 U5 + 9 X_8_5
  <= 8
 mtz_8_6:
  + 1 U8 - 1 U6 + 9 X_8_6
  <= 8
 mtz_8_7:
  + 1 U8 - 1 U7 + 9 X_8_7
  <= 8
 mtz_8_9:
  + 1 U8 - 1 U9 + 9 X_8_9
  <= 8
 mtz_9_1:
  + 1 U9 - 1 U1 + 9 X_9_1
  <= 8
 mtz_9_2:
  + 1 U9 - 1 U2 + 9 X_9_2
  <= 8
 mtz_9_3:
  + 1 U9 - 1 U3 + 9 X_9_3
  <= 8
 mtz_9_4:
  + 1 U9 - 1 U4 + 9 X_9_4
  <= 8
 mtz_9_5:
  + 1 U9 - 1 U5 + 9 X_9_5
  <= 8
 mtz_9_6:
  + 1 U9 - 1 U6 + 9 X_9_6
  <= 8
 mtz_9_7:
  + 1 U9 - 1 U7 + 9 X_9_7
  <= 8
 mtz_9_8:
  + 1 U9 - 1 U8 + 9 X_9_8
  <= 8
 obj1:
  + 692 X_0_1 + 961 X_0_2 + 989 X_0_3 + 912 X_0_4 + 249 X_0_5 + 249 X_0_6 + 354 X_0_7 + 1034 X_0_8
  + 559 X_0_9 + 692 X_1_0 + 518 X_1_2 + 970 X_1_3 + 979 X_1_4 + 543 X_1_5 + 462 X_1_6 + 341 X_1_7
  + 440 X_1_8 + 240 X_1_9 + 961 X_2_0 + 518 X_2_1 + 609 X_2_3 + 677 X_2_4 + 721 X_2_5 + 720 X_2_6
  + 659 X_2_7 + 233 X_2_8 + 435 X_2_9 + 989 X_3_0 + 970 X_3_1 + 609 X_3_2 + 124 X_3_4 + 767 X_3_5
  + 847 X_3_6 + 879 X_3_7 + 842 X_3_8 + 756 X_3_9 + 912 X_4_0 + 979 X_4_1 + 677 X_4_2 + 124 X_4_3
  + 705 X_4_5 + 796 X_4_6 + 844 X_4_7 + 906 X_4_8 + 751 X_4_9 + 249 X_5_0 + 543 X_5_1 + 721 X_5_2
  + 767 X_5_3 + 705 X_5_4 + 111 X_5_6 + 222 X_5_7 + 817 X_5_8 + 352 X_5_9 + 249 X_6_0 + 462 X_6_1
  + 720 X_6_2 + 847 X_6_3 + 796 X_6_4 + 111 X_6_5 + 123 X_6_7 + 784 X_6_8 + 309 X_6_9 + 354 X_7_0
  + 341 X_7_1 + 659 X_7_2 + 879 X_7_3 + 844 X_7_4 + 222 X_7_5 + 123 X_7_6 + 693 X_7_8 + 225 X_7_9
  + 1034 X_8_0 + 440 X_8_1 + 233 X_8_2 + 842 X_8_3 + 906 X_8_4 + 817 X_8_5 + 784 X_8_6 + 693 X_8_7
  + 475 X_8_9 + 559 X_9_0 + 240 X_9_1 + 435 X_9_2 + 756 X_9_3 + 751 X_9_4 + 352 X_9_5 + 309 X_9_6
  + 225 X_9_7 + 475 X_9_8
  <= 1
 obj2:
  + 641 X_0_1 + 492 X_0_2 + 966 X_0_3 + 858 X_0_4 + 234 X_0_5 + 735 X_0_6 + 1002 X_0_7 + 890 X_0_8
  + 665 X_0_9 + 641 X_1_0 + 195 X_1_2 + 741 X_1_3 + 707 X_1_4 + 524 X_1_5 + 106 X_1_6 + 626 X_1_7
  + 824 X_1_8 + 499 X_1_9 + 492 X_2_0 + 195 X_2_1 + 647 X_2_3 + 585 X_2_4 + 338 X_2_5 + 258 X_2_6
  + 590 X_2_7 + 685 X_2_8 + 360 X_2_9 + 966 X_3_0 + 741 X_3_1 + 647 X_3_2 + 124 X_3_4 + 732 X_3_5
  + 696 X_3_6 + 223 X_3_7 + 217 X_3_8 + 309 X_3_9 + 858 X_4_0 + 707 X_4_1 + 585 X_4_2 + 124 X_4_3
  + 624 X_4_5 + 680 X_4_6 + 307 X_4_7 + 135 X_4_8 + 227 X_4_9 + 234 X_5_0 + 524 X_5_1 + 338 X_5_2
  + 732 X_5_3 + 624 X_5_4 + 597 X_5_6 + 776 X_5_7 + 662 X_5_8 + 433 X_5_9 + 735 X_6_0 + 106 X_6_1
  + 258 X_6_2 + 696 X_6_3 + 680 X_6_4 + 597 X_6_5 + 556 X_6_7 + 804 X_6_8 + 490 X_6_9 + 1002 X_7_0
  + 626 X_7_1 + 590 X_7_2 + 223 X_7_3 + 307 X_7_4 + 776 X_7_5 + 556 X_7_6 + 431 X_7_8 + 354 X_7_9
  + 890 X_8_0 + 824 X_8_1 + 685 X_8_2 + 217 X_8_3 + 135 X_8_4 + 662 X_8_5 + 804 X_8_6 + 431 X_8_7
  + 327 X_8_9 + 665 X_9_0 + 499 X_9_1 + 360 X_9_2 + 309 X_9_3 + 227 X_9_4 + 433 X_9_5 + 490 X_9_6
  + 354 X_9_7 + 327 X_9_8
  <= 2
 obj3:
  + 167 X_0_1 + 168 X_0_2 + 695 X_0_3 + 426 X_0_4 + 304 X_0_5 + 865 X_0_6 + 14 X_0_7 + 593 X_0_8
  + 242 X_0_9 + 167 X_1_0 + 288 X_1_2 + 861 X_1_3 + 374 X_1_4 + 451 X_1_5 + 1012 X_1_6 + 169 X_1_7
  + 738 X_1_8 + 389 X_1_9 + 168 X_2_0 + 288 X_2_1 + 656 X_2_3 + 366 X_2_4 + 362 X_2_5 + 724 X_2_6
  + 179 X_2_7 + 451 X_2_8 + 114 X_2_9 + 695 X_3_0 + 861 X_3_1 + 656 X_3_2 + 1015 X_3_4 + 444 X_3_5
  + 555 X_3_6 + 692 X_3_7 + 472 X_3_8 + 551 X_3_9 + 426 X_4_0 + 374 X_4_1 + 366 X_4_2 + 1015 X_4_3
  + 712 X_4_5 + 952 X_4_6 + 439 X_4_7 + 705 X_4_8 + 463 X_4_9 + 304 X_5_0 + 451 X_5_1 + 362 X_5_2
  + 444 X_5_3 + 712 X_5_4 + 793 X_5_6 + 295 X_5_7 + 558 X_5_8 + 322 X_5_9 + 865 X_6_0 + 1012 X_6_1
  + 724 X_6_2 + 555 X_6_3 + 952 X_6_4 + 793 X_6_5 + 871 X_6_7 + 273 X_6_8 + 624 X_6_9 + 14 X_7_0
  + 169 X_7_1 + 179 X_7_2 + 692 X_7_3 + 439 X_7_4 + 295 X_7_5 + 871 X_7_6 + 600 X_7_8 + 249 X_7_9
  + 593 X_8_0 + 738 X_8_1 + 451 X_8_2 + 472 X_8_3 + 705 X_8_4 + 558 X_8_5 + 273 X_8_6 + 600 X_8_7
  + 351 X_8_9 + 242 X_9_0 + 389 X_9_1 + 114 X_9_2 + 551 X_9_3 + 463 X_9_4 + 322 X_9_5 + 624 X_9_6
  + 249 X_9_7 + 351 X_9_8
  <= 3
 obj4:
  + 331 X_0_1 + 544 X_0_2 + 496 X_0_3 + 210 X_0_4 + 490 X_0_5 + 187 X_0_6 + 150 X_0_7 + 460 X_0_8
  + 188 X_0_9 + 331 X_1_0 + 238 X_1_2 + 814 X_1_3 + 121 X_1_4 + 271 X_1_5 + 208 X_1_6 + 238 X_1_7
  + 418 X_1_8 + 504 X_1_9 + 544 X_2_0 + 238 X_2_1 + 993 X_2_3 + 340 X_2_4 + 166 X_2_5 + 376 X_2_6
  + 416 X_2_7 + 619 X_2_8 + 729 X_2_9 + 496 X_3_0 + 814 X_3_1 + 993 X_3_2 + 694 X_3_4 + 884 X_3_5
  + 620 X_3_6 + 582 X_3_7 + 898 X_3_8 + 400 X_3_9 + 210 X_4_0 + 121 X_4_1 + 340 X_4_2 + 694 X_4_3
  + 320 X_4_5 + 111 X_4_6 + 129 X_4_7 + 416 X_4_8 + 389 X_4_9 + 490 X_5_0 + 271 X_5_1 + 166 X_5_2
  + 884 X_5_3 + 320 X_5_4 + 303 X_5_6 + 342 X_5_7 + 690 X_5_8 + 678 X_5_9 + 187 X_6_0 + 208 X_6_1
  + 376 X_6_2 + 620 X_6_3 + 111 X_6_4 + 303 X_6_5 + 40 X_6_7 + 516 X_6_8 + 375 X_6_9 + 150 X_7_0
  + 238 X_7_1 + 416 X_7_2 + 582 X_7_3 + 129 X_7_4 + 342 X_7_5 + 40 X_7_6 + 513 X_7_8 + 337 X_7_9
  + 460 X_8_0 + 418 X_8_1 + 619 X_8_2 + 898 X_8_3 + 416 X_8_4 + 690 X_8_5 + 516 X_8_6 + 513 X_8_7
  + 497 X_8_9 + 188 X_9_0 + 504 X_9_1 + 729 X_9_2 + 400 X_9_3 + 389 X_9_4 + 678 X_9_5 + 375 X_9_6
  + 337 X_9_7 + 497 X_9_8
  <= 4
Bounds
 1 <= U1 <= 9
 1 <= U2 <= 9
 1 <= U3 <= 9
 1 <= U4 <= 9
 1 <= U5 <= 9
 1 <= U6 <= 9
 1 <= U7 <= 9
 1 <= U8 <= 9
 1 <= U9 <= 9
Binary
 X_0_1
 X_0_2
 X_0_3
 X_0_4
 X_0_5
 X_0_6
 X_0_7
 X_0_8
 X_0_9
 X_1_0
 X_1_2
 X_1_3
 X_1_4
 X_1_5
 X_1_6
 X_1_7
 X_1_8
 X_1_9
 X_2_0
 X_2_1
 X_2_3
 X_2_4
 X_2_5
 X_2_6
 X_2_7
 X_2_8
 X_2_9
 X_3_0
 X_3_1
 X_3_2
 X_3_4
 X_3_5
 X_3_6
 X_3_7
 X_3_8
 X_3_9
 X_4_0
 X_4_1
 X_4_2
 X_4_3
 X_4_5
 X_4_6
 X_4_7
 X_4_8
 X_4_9
 X_5_0
 X_5_1
 X_5_2
 X_5_3
 X_5_4
 X_5_6
 X_5_7
 X_5_8
 X_5_9
 X_6_0
 X_6_1
 X_6_2
 X_6_3
 X_6_4
 X_6_5
 X_6_7
 X_6_8
 X_6_9
 X_7_0
 X_7_1
 X_7_2
 X_7_3
 X_7_4
 X_7_5
 X_7_6
 X_7_8
 X_7_9
 X_8_0
 X_8_1
 X_8_2
 X_8_3
 X_8_4
 X_8_5
 X_8_6
 X_8_7
 X_8_9
 X_9_0
 X_9_1
 X_9_2
 X_9_3
 X_9_4
 X_9_5
 X_9_6
 X_9_7
 X_9_8
End
